p cnf 74 385
-32 -37 0
-47 -54 0
-38 -44 -63 0
-37 -44 0
-2 -34 0
-6 -40 0
-3 -38 0
-2 -32 -38 0
-2 -38 -44 0
-39 -46 0
-6 -39 -45 0
-6 -52 0
-38 -64 0
-56 -60 0
-44 -47 -55 0
-38 -48 0
-38 -47 -53 0
-5 -38 -75 0
-31 -38 -56 0
-38 -44 -47 0
-32 -38 -47 0
-32 -47 -55 0
-5 -34 -75 0
-60 -63 0
-5 -34 -63 0
-4 -34 -63 0
-61 -63 0
-63 -71 0
-47 -56 -70 0
-47 -51 -56 0
-39 -47 -86 0
-35 -47 -56 0
-47 -56 -59 0
-44 -47 -56 0
-44 -47 -63 0
-4 -34 -75 0
-1 -6 0
-41 -60 0
-39 -47 -83 0
-34 -39 -47 0
-34 -36 -47 0
-34 -47 -68 0
-6 -24 -45 0
-6 -24 -34 -47 0
-6 -12 -45 0
-47 -62 -86 0
-12 -23 -47 -86 0
-30 -47 -86 0
-41 -44 -47 0
-12 -28 -47 -86 0
-47 -86 -88 0
-12 -29 -47 -86 0
-12 -22 -47 -86 0
-12 -21 -47 -86 0
-47 -85 -86 0
-44 -47 -67 0
-12 -19 -47 -86 0
-44 -47 -66 0
-44 -47 -65 0
-16 -28 -47 -86 0
-11 -28 -47 -86 0
-10 -45 -47 -86 0
-9 -23 -47 -60 0
-9 -28 -47 -86 0
-7 -29 -47 -60 0
-7 -28 -47 -86 0
-6 -19 -47 -86 0
-46 -68 0
-6 -45 -68 0
-18 -52 0
-55 -83 0
-55 -60 -67 0
-55 -86 0
-2 -86 0
-5 -75 -86 0
-38 -56 -86 0
-38 -56 -83 0
-38 -67 0
-38 -66 0
-5 -56 -75 0
-2 -5 -56 0
-37 -42 0
-37 -69 0
-31 -37 0
-37 -48 -54 0
-5 -37 -54 0
-34 -37 0
-5 -37 -56 0
-37 -48 -61 0
-37 -48 -71 0
-3 -37 -71 0
-2 -54 0
-3 -37 -61 0
-37 -61 -64 0
-37 -64 -71 0
-37 -67 -71 0
-37 -61 -67 0
-37 -70 0
-37 -51 -56 0
-35 -37 0
-37 -48 -59 0
-4 -37 -56 0
-4 -56 -63 0
-4 -59 -75 0
-4 -56 -75 0
-2 -32 -55 0
-2 -44 -55 0
-2 -31 -55 0
-2 -4 -56 0
-2 -56 -61 0
-2 -56 -71 0
-2 -55 -70 0
-2 -48 -55 0
-2 -51 -55 0
-2 -35 -55 0
-2 -42 -55 0
-2 -55 -69 0
-2 -53 -55 0
-3 -37 -55 0
-37 -84 0
-37 -72 0
-37 -87 0
-37 -73 0
-2 -56 -59 0
-47 -56 -57 0
-47 -49 -56 0
-47 -55 -73 0
-2 -3 -55 0
-51 -63 -84 0
-18 -40 0
-1 -18 0
-18 -45 0
-6 -45 -56 0
-6 -24 -46 0
-46 -56 0
-46 -55 0
-3 -55 -60 0
-6 -45 -55 0
-55 -60 -64 0
-48 -55 -60 0
-49 -54 -63 0
-55 -60 -66 0
-31 -55 -60 0
-54 -55 -60 0
-38 -54 -60 0
-31 -38 -54 0
-38 -53 -86 0
-38 -41 0
-38 -54 -86 0
-38 -54 -83 0
-34 -38 -56 0
-34 -38 -54 0
-38 -65 0
-6 -38 -45 -54 0
-38 -46 -54 0
-38 -63 -87 0
-32 -38 -63 0
-38 -63 -70 0
-38 -51 -63 0
-35 -38 -63 0
-38 -42 -63 0
-38 -63 -69 0
-38 -63 -84 0
-38 -63 -72 0
-38 -63 -73 0
-49 -56 -63 0
-38 -49 -63 0
-49 -59 -63 0
-5 -55 -63 0
-5 -75 -78 0
-5 -37 -43 0
-2 -5 -78 0
-4 -37 -58 0
-5 -75 -79 0
-5 -63 -79 0
-5 -57 -75 0
-4 -37 -77 0
-5 -37 -80 0
-4 -37 -57 0
-4 -41 -63 0
-4 -37 -67 0
-4 -63 -72 0
-4 -47 -67 0
-4 -63 -87 0
-5 -43 -63 0
-4 -63 -80 0
-4 -35 -75 0
-2 -4 -77 0
-4 -63 -70 0
-4 -35 -63 0
-4 -58 -63 0
-4 -42 -63 0
-4 -63 -66 0
-4 -57 -63 0
-47 -63 -73 0
-4 -65 -75 0
-4 -63 -65 0
-47 -59 -63 0
-47 -63 -84 0
-3 -37 -53 0
-37 -48 -53 0
-2 -37 -53 0
-2 -5 -79 0
-4 -47 -66 0
-47 -51 -66 0
-2 -5 -58 0
-2 -5 -77 0
-5 -57 -63 0
-2 -5 -67 0
-5 -37 -67 0
-5 -63 -67 0
-5 -67 -75 0
-47 -61 -67 0
-47 -67 -71 0
-47 -59 -67 0
-5 -47 -67 0
-6 -41 -45 0
-41 -46 0
-12 -22 -46 0
-18 -22 -46 0
-30 -46 -60 0
-6 -19 -46 -54 0
-6 -19 -36 -46 0
-6 -19 -46 -62 0
-12 -19 -23 -46 0
-6 -19 -46 -88 0
-6 -19 -46 -86 0
-18 -19 -46 -60 0
-18 -24 -46 0
-10 -22 -46 0
-7 -16 -45 -46 0
-7 -40 -46 -54 0
-7 -36 -40 -46 0
-7 -40 -46 -62 0
-7 -40 -46 -88 0
-7 -40 -46 -86 0
-10 -46 -52 0
-12 -40 -46 0
-4 -54 -75 0
-4 -75 -86 0
-7 -36 -45 -46 0
-7 -45 -46 -54 0
-7 -45 -46 -62 0
-7 -45 -46 -88 0
-7 -45 -46 -85 0
-7 -45 -46 -67 0
-7 -45 -46 -66 0
-7 -45 -46 -65 0
-7 -11 -45 -46 0
-7 -23 -45 -46 -86 0
-7 -46 -52 -86 0
-12 -46 -52 0
-1 -10 -46 0
-12 -24 -46 0
-12 -45 -46 0
-12 -19 -46 -54 0
-12 -19 -36 -46 0
-12 -19 -46 -62 0
-12 -19 -46 -88 0
-12 -19 -29 -46 0
-12 -19 -46 -86 0
-30 -46 -62 0
-12 -23 -30 -46 0
-30 -46 -54 0
-30 -36 -46 0
-30 -46 -86 0
-4 -44 -75 0
-4 -75 -84 0
-4 -71 -75 0
-4 -75 -87 0
-4 -57 -75 0
-4 -70 -75 0
-4 -67 -75 0
-4 -42 -75 0
-4 -75 -78 0
-4 -73 -75 0
-4 -61 -75 0
-4 -75 -77 0
-4 -75 -79 0
-4 -43 -75 0
-4 -58 -75 0
-4 -75 -83 0
-4 -41 -75 0
-4 -66 -75 0
-4 -72 -75 0
-4 -75 -80 0
-4 -60 -75 0
-2 -35 -75 0
-5 -75 -84 0
-5 -60 -75 0
-2 -44 -75 0
-2 -60 0
-2 -59 -67 0
-2 -61 -75 0
-2 -41 -71 0
-2 -41 -84 0
-2 -49 -56 0
-2 -56 -72 0
-2 -75 -87 0
-2 -57 -75 0
-2 -42 -75 0
-2 -73 -75 0
-51 -56 -63 0
-2 -70 -75 0
-2 -83 0
-2 -63 -72 0
-2 -51 -67 0
-2 -41 -51 0
-51 -63 -65 0
-2 -49 -67 0
-2 -49 -66 0
-2 -41 -49 0
-2 -49 -65 0
-47 -57 -63 0
-2 -63 -70 0
-35 -51 -63 0
-42 -51 -63 0
-2 -63 -87 0
-51 -63 -66 0
-51 -59 -63 0
-51 -57 -63 0
-44 -51 -63 0
-51 -63 -73 0
-51 -63 -67 0
-34 -51 -63 0
-51 -55 -63 0
-49 -55 -63 0
-34 -47 -56 0
-3 -47 -55 0
-47 -48 -55 0
-47 -53 -55 0
-31 -47 -55 0
-42 -47 -55 0
-47 -55 -69 0
-47 -55 -72 0
-47 -55 -87 0
-2 -59 -78 0
-2 -43 -59 0
-2 -58 -59 0
-2 -59 -79 0
-2 -59 -77 0
-2 -59 -80 0
-47 -55 -59 0
-5 -47 -55 0
-4 -37 -55 0
-2 -4 -55 0
-4 -55 -75 0
-5 -54 -75 0
-5 -55 -75 0
-5 -44 -75 0
-5 -61 -75 0
-5 -70 -75 0
-5 -35 -75 0
-5 -71 -75 0
-5 -41 -75 0
-5 -75 -83 0
-6 -30 -36 -45 0
-6 -30 -45 -54 0
-6 -19 -45 -54 0
-6 -10 -45 0
-6 -7 -45 -54 0
-6 -22 -45 0
-6 -7 -28 -45 0
-6 -7 -29 -45 0
-6 -7 -21 -45 0
-9 -45 -47 -60 0
-6 -7 -17 -45 0
-6 -16 -45 -47 0
-11 -23 -47 -86 0
-17 -23 -47 -86 0
-36 -46 -47 0
-17 -28 -47 -60 0
-11 -29 -47 -60 0
-6 -11 -45 -47 0
-6 -17 -45 -47 0
-17 -45 -47 -86 0
-16 -45 -47 -86 0
-11 -40 -47 -86 0
-34 -47 -65 0
-46 -47 -65 0
-47 -60 -67 0
-47 -60 -66 0
-9 -40 -47 -86 0
-47 -61 -66 0
-47 -66 -71 0
